
Gurobi 10.0.1 (win64) logging started Sun Aug 27 11:22:14 2023

Set parameter LogFile to value "results//log/Fattahi_setup_14_modified_makespan.log"
Gurobi Optimizer version 10.0.1 build v10.0.1rc0 (win64)

CPU model: AMD Ryzen 7 3700X 8-Core Processor, instruction set [SSE2|AVX|AVX2]
Thread count: 8 physical cores, 16 logical processors, using up to 16 threads

Optimize a model with 597 rows, 554 columns and 2570 nonzeros
Model fingerprint: 0xbaa9a424
Variable types: 56 continuous, 498 integer (497 binary)
Coefficient statistics:
  Matrix range     [1e+00, 1e+06]
  Objective range  [1e+00, 1e+00]
  Bounds range     [1e+00, 1e+00]
  RHS range        [1e+00, 3e+06]
Presolve removed 63 rows and 302 columns
Presolve time: 0.00s
Presolved: 534 rows, 252 columns, 2479 nonzeros
Variable types: 56 continuous, 196 integer (195 binary)
Found heuristic solution: objective 21223.000000
Found heuristic solution: objective 17124.000000

Root relaxation: objective 5.862000e+03, 120 iterations, 0.00 seconds (0.00 work units)

    Nodes    |    Current Node    |     Objective Bounds      |     Work
 Expl Unexpl |  Obj  Depth IntInf | Incumbent    BestBd   Gap | It/Node Time

     0     0 5862.00000    0   36 17124.0000 5862.00000  65.8%     -    0s
H    0     0                    16402.000000 5862.00000  64.3%     -    0s
H    0     0                    15732.000000 5862.00000  62.7%     -    0s
H    0     0                    12839.000000 5862.00000  54.3%     -    0s
     0     0 5915.00000    0   43 12839.0000 5915.00000  53.9%     -    0s
     0     0 5915.00000    0   38 12839.0000 5915.00000  53.9%     -    0s
H    0     0                    12314.000000 5915.00000  52.0%     -    0s
     0     0 5915.01664    0   39 12314.0000 5915.01664  52.0%     -    0s
H    0     0                    12102.000000 5920.63536  51.1%     -    0s
     0     0 5920.63536    0   38 12102.0000 5920.63536  51.1%     -    0s
H    0     0                    12101.000000 5920.63536  51.1%     -    0s
     0     0 5927.00000    0   36 12101.0000 5927.00000  51.0%     -    0s
     0     0 5927.00000    0   36 12101.0000 5927.00000  51.0%     -    0s
     0     0 5927.00000    0   36 12101.0000 5927.00000  51.0%     -    0s
     0     0 5932.09331    0   36 12101.0000 5932.09331  51.0%     -    0s
H    0     0                    12002.000000 5932.09331  50.6%     -    0s
     0     0 5933.80160    0   36 12002.0000 5933.80160  50.6%     -    0s
     0     0 5933.80161    0   37 12002.0000 5933.80161  50.6%     -    0s
H    0     0                    11715.000000 5933.80161  49.3%     -    0s
     0     0 5940.18870    0   41 11715.0000 5940.18870  49.3%     -    0s
H    0     0                    11679.000000 5940.18870  49.1%     -    0s
     0     0 5941.02484    0   39 11679.0000 5941.02484  49.1%     -    0s
     0     0 5941.02484    0   38 11679.0000 5941.02484  49.1%     -    0s
     0     0 5944.90780    0   37 11679.0000 5944.90780  49.1%     -    0s
     0     0 5949.00000    0   40 11679.0000 5949.00000  49.1%     -    0s
     0     0 5949.00000    0   41 11679.0000 5949.00000  49.1%     -    0s
     0     0 5949.00000    0   41 11679.0000 5949.00000  49.1%     -    0s
     0     0 5949.02262    0   41 11679.0000 5949.02262  49.1%     -    0s
H    0     0                    9749.0000000 5949.02262  39.0%     -    0s
     0     0 5956.83333    0   41 9749.00000 5956.83333  38.9%     -    0s
     0     0 5956.83333    0   41 9749.00000 5956.83333  38.9%     -    0s
     0     0 5956.83333    0   37 9749.00000 5956.83333  38.9%     -    0s
H    0     0                    9343.0000000 5956.83333  36.2%     -    0s
     0     1 5956.83333    0   36 9343.00000 5956.83333  36.2%     -    0s
H   30    19                    9341.0000000 5960.97754  36.2%  26.5    0s
H   31    19                    9288.0000000 5960.97754  35.8%  25.7    0s
H   37    19                    9255.0000000 5970.05076  35.5%  22.8    0s
H 8977  3218                    9128.0000000 6147.17778  32.7%   3.6    1s
H23956 10015                    9079.0000000 6147.17778  32.3%   4.2    1s
H23957  9822                    9019.0000000 6147.17778  31.8%   4.2    1s
H42215 16619                    8809.0000000 6178.81103  29.9%   4.3    2s
H42240 15797                    8807.0000000 6178.81103  29.8%   4.3    2s
H42242 15007                    8806.0000000 6178.81103  29.8%   4.3    2s
H42244 14258                    8805.0000000 6178.81103  29.8%   4.3    3s
H42244 13545                    8803.0000000 6178.81103  29.8%   4.3    3s
H42251 12871                    8802.0000000 6178.81103  29.8%   4.3    3s
H42253 12229                    8801.0000000 6178.81103  29.8%   4.3    3s
H42253 11617                    8614.0000000 6178.81103  28.3%   4.3    3s
H42282 11056                    8581.0000000 6178.81103  28.0%   4.4    3s
 49470 11501 8141.00000   75   21 8581.00000 6288.49966  26.7%   5.2    5s
 221940 44875 8254.51512   79   21 8581.00000 7203.67431  16.1%   7.1   10s
 386028 64130 infeasible   71      8581.00000 7537.00000  12.2%   7.2   15s
 518838 66482 8456.33458   89   11 8581.00000 7757.00000  9.60%   7.3   20s
 655056 57073 8295.00000   80   14 8581.00000 7988.12401  6.91%   7.2   25s
 792194 33526 8297.21848   69   22 8581.00000 8243.49976  3.93%   7.1   30s

Cutting planes:
  Learned: 3
  Gomory: 27
  Implied bound: 3
  MIR: 18
  Flow cover: 11

Explored 892525 nodes (6133703 simplex iterations) in 33.59 seconds (25.88 work units)
Thread count was 16 (of 16 available processors)

Solution count 10: 8581 8614 8801 ... 9019

Optimal solution found (tolerance 1.00e-04)
Best objective 8.581000000000e+03, best bound 8.581000000000e+03, gap 0.0000%
Warning: constraint name "precedence between 0,1 to 0,0 if x_[j,l,h,z,i]=1" has a space
Warning: constraint name "precedence between 0,1 to 0,0 if x_[j,l,h,z,i]=1" has a space
Warning: default constraint names used to write mps file
